c Mesh Graph
c 100 Rows, 10 columns, capacities in range [0, 500]
p max 1002 2900
n 1 s
n 1002 t
a 1 101 1500
a 1 100 1500
a 1 99 1500
a 1 98 1500
a 1 97 1500
a 1 96 1500
a 1 95 1500
a 1 94 1500
a 1 93 1500
a 1 92 1500
a 1 91 1500
a 1 90 1500
a 1 89 1500
a 1 88 1500
a 1 87 1500
a 1 86 1500
a 1 85 1500
a 1 84 1500
a 1 83 1500
a 1 82 1500
a 1 81 1500
a 1 80 1500
a 1 79 1500
a 1 78 1500
a 1 77 1500
a 1 76 1500
a 1 75 1500
a 1 74 1500
a 1 73 1500
a 1 72 1500
a 1 71 1500
a 1 70 1500
a 1 69 1500
a 1 68 1500
a 1 67 1500
a 1 66 1500
a 1 65 1500
a 1 64 1500
a 1 63 1500
a 1 62 1500
a 1 61 1500
a 1 60 1500
a 1 59 1500
a 1 58 1500
a 1 57 1500
a 1 56 1500
a 1 55 1500
a 1 54 1500
a 1 53 1500
a 1 52 1500
a 1 51 1500
a 1 50 1500
a 1 49 1500
a 1 48 1500
a 1 47 1500
a 1 46 1500
a 1 45 1500
a 1 44 1500
a 1 43 1500
a 1 42 1500
a 1 41 1500
a 1 40 1500
a 1 39 1500
a 1 38 1500
a 1 37 1500
a 1 36 1500
a 1 35 1500
a 1 34 1500
a 1 33 1500
a 1 32 1500
a 1 31 1500
a 1 30 1500
a 1 29 1500
a 1 28 1500
a 1 27 1500
a 1 26 1500
a 1 25 1500
a 1 24 1500
a 1 23 1500
a 1 22 1500
a 1 21 1500
a 1 20 1500
a 1 19 1500
a 1 18 1500
a 1 17 1500
a 1 16 1500
a 1 15 1500
a 1 14 1500
a 1 13 1500
a 1 12 1500
a 1 11 1500
a 1 10 1500
a 1 9 1500
a 1 8 1500
a 1 7 1500
a 1 6 1500
a 1 5 1500
a 1 4 1500
a 1 3 1500
a 1 2 1500
a 2 103 278
a 2 102 387
a 2 201 384
a 3 104 336
a 3 103 294
a 3 102 416
a 4 105 150
a 4 104 493
a 4 103 387
a 5 106 28
a 5 105 363
a 5 104 422
a 6 107 264
a 6 106 60
a 6 105 191
a 7 108 427
a 7 107 41
a 7 106 427
a 8 109 212
a 8 108 237
a 8 107 173
a 9 110 430
a 9 109 68
a 9 108 369
a 10 111 363
a 10 110 31
a 10 109 283
a 11 112 136
a 11 111 68
a 11 110 124
a 12 113 23
a 12 112 303
a 12 111 430
a 13 114 168
a 13 113 70
a 13 112 59
a 14 115 12
a 14 114 457
a 14 113 394
a 15 116 374
a 15 115 230
a 15 114 43
a 16 117 285
a 16 116 420
a 16 115 422
a 17 118 325
a 17 117 199
a 17 116 38
a 18 119 414
a 18 118 371
a 18 117 316
a 19 120 481
a 19 119 92
a 19 118 27
a 20 121 363
a 20 120 374
a 20 119 457
a 21 122 282
a 21 121 497
a 21 120 171
a 22 123 85
a 22 122 426
a 22 121 306
a 23 124 6
a 23 123 337
a 23 122 328
a 24 125 314
a 24 124 230
a 24 123 347
a 25 126 396
a 25 125 125
a 25 124 358
a 26 127 315
a 26 126 46
a 26 125 83
a 27 128 365
a 27 127 435
a 27 126 368
a 28 129 88
a 28 128 251
a 28 127 44
a 29 130 179
a 29 129 277
a 29 128 309
a 30 131 404
a 30 130 85
a 30 129 289
a 31 132 400
a 31 131 255
a 31 130 152
a 32 133 177
a 32 132 61
a 32 131 433
a 33 134 13
a 33 133 240
a 33 132 369
a 34 135 95
a 34 134 87
a 34 133 227
a 35 136 71
a 35 135 296
a 35 134 40
a 36 137 468
a 36 136 379
a 36 135 435
a 37 138 403
a 37 137 98
a 37 136 102
a 38 139 153
a 38 138 493
a 38 137 318
a 39 140 281
a 39 139 302
a 39 138 257
a 40 141 366
a 40 140 442
a 40 139 287
a 41 142 120
a 41 141 445
a 41 140 190
a 42 143 32
a 42 142 230
a 42 141 441
a 43 144 272
a 43 143 98
a 43 142 118
a 44 145 210
a 44 144 176
a 44 143 482
a 45 146 357
a 45 145 68
a 45 144 428
a 46 147 87
a 46 146 354
a 46 145 498
a 47 148 184
a 47 147 307
a 47 146 466
a 48 149 29
a 48 148 125
a 48 147 220
a 49 150 330
a 49 149 233
a 49 148 372
a 50 151 271
a 50 150 20
a 50 149 4
a 51 152 216
a 51 151 209
a 51 150 369
a 52 153 297
a 52 152 150
a 52 151 341
a 53 154 246
a 53 153 119
a 53 152 224
a 54 155 422
a 54 154 452
a 54 153 347
a 55 156 489
a 55 155 380
a 55 154 56
a 56 157 342
a 56 156 229
a 56 155 265
a 57 158 1
a 57 157 194
a 57 156 351
a 58 159 125
a 58 158 265
a 58 157 35
a 59 160 357
a 59 159 488
a 59 158 415
a 60 161 228
a 60 160 492
a 60 159 244
a 61 162 437
a 61 161 360
a 61 160 366
a 62 163 438
a 62 162 52
a 62 161 433
a 63 164 408
a 63 163 276
a 63 162 229
a 64 165 359
a 64 164 122
a 64 163 475
a 65 166 238
a 65 165 30
a 65 164 396
a 66 167 319
a 66 166 294
a 66 165 236
a 67 168 12
a 67 167 144
a 67 166 429
a 68 169 277
a 68 168 30
a 68 167 429
a 69 170 264
a 69 169 444
a 69 168 405
a 70 171 107
a 70 170 39
a 70 169 114
a 71 172 319
a 71 171 405
a 71 170 341
a 72 173 370
a 72 172 189
a 72 171 129
a 73 174 497
a 73 173 418
a 73 172 418
a 74 175 471
a 74 174 244
a 74 173 325
a 75 176 500
a 75 175 491
a 75 174 184
a 76 177 145
a 76 176 226
a 76 175 273
a 77 178 140
a 77 177 6
a 77 176 91
a 78 179 170
a 78 178 287
a 78 177 455
a 79 180 465
a 79 179 43
a 79 178 83
a 80 181 356
a 80 180 8
a 80 179 198
a 81 182 112
a 81 181 349
a 81 180 305
a 82 183 300
a 82 182 329
a 82 181 123
a 83 184 69
a 83 183 247
a 83 182 344
a 84 185 312
a 84 184 423
a 84 183 341
a 85 186 302
a 85 185 106
a 85 184 311
a 86 187 379
a 86 186 231
a 86 185 162
a 87 188 237
a 87 187 321
a 87 186 306
a 88 189 23
a 88 188 127
a 88 187 445
a 89 190 417
a 89 189 209
a 89 188 466
a 90 191 425
a 90 190 259
a 90 189 283
a 91 192 125
a 91 191 63
a 91 190 138
a 92 193 453
a 92 192 37
a 92 191 101
a 93 194 51
a 93 193 380
a 93 192 400
a 94 195 474
a 94 194 72
a 94 193 469
a 95 196 431
a 95 195 382
a 95 194 132
a 96 197 161
a 96 196 395
a 96 195 434
a 97 198 482
a 97 197 200
a 97 196 164
a 98 199 460
a 98 198 497
a 98 197 400
a 99 200 169
a 99 199 314
a 99 198 274
a 100 201 427
a 100 200 96
a 100 199 191
a 101 102 341
a 101 201 85
a 101 200 467
a 102 203 377
a 102 202 185
a 102 301 91
a 103 204 108
a 103 203 437
a 103 202 43
a 104 205 180
a 104 204 257
a 104 203 446
a 105 206 413
a 105 205 388
a 105 204 419
a 106 207 160
a 106 206 173
a 106 205 349
a 107 208 211
a 107 207 337
a 107 206 10
a 108 209 207
a 108 208 88
a 108 207 343
a 109 210 373
a 109 209 214
a 109 208 302
a 110 211 320
a 110 210 256
a 110 209 322
a 111 212 405
a 111 211 222
a 111 210 100
a 112 213 441
a 112 212 312
a 112 211 440
a 113 214 229
a 113 213 206
a 113 212 168
a 114 215 485
a 114 214 151
a 114 213 128
a 115 216 225
a 115 215 421
a 115 214 159
a 116 217 397
a 116 216 270
a 116 215 423
a 117 218 85
a 117 217 131
a 117 216 82
a 118 219 173
a 118 218 473
a 118 217 293
a 119 220 386
a 119 219 126
a 119 218 351
a 120 221 141
a 120 220 300
a 120 219 223
a 121 222 214
a 121 221 399
a 121 220 43
a 122 223 25
a 122 222 191
a 122 221 299
a 123 224 82
a 123 223 210
a 123 222 91
a 124 225 233
a 124 224 337
a 124 223 320
a 125 226 5
a 125 225 495
a 125 224 156
a 126 227 274
a 126 226 270
a 126 225 380
a 127 228 256
a 127 227 351
a 127 226 277
a 128 229 80
a 128 228 143
a 128 227 361
a 129 230 206
a 129 229 494
a 129 228 385
a 130 231 5
a 130 230 68
a 130 229 122
a 131 232 255
a 131 231 462
a 131 230 114
a 132 233 445
a 132 232 260
a 132 231 327
a 133 234 7
a 133 233 203
a 133 232 203
a 134 235 343
a 134 234 22
a 134 233 285
a 135 236 190
a 135 235 29
a 135 234 369
a 136 237 459
a 136 236 409
a 136 235 373
a 137 238 309
a 137 237 37
a 137 236 499
a 138 239 304
a 138 238 249
a 138 237 254
a 139 240 149
a 139 239 134
a 139 238 334
a 140 241 68
a 140 240 255
a 140 239 391
a 141 242 30
a 141 241 369
a 141 240 247
a 142 243 289
a 142 242 47
a 142 241 1
a 143 244 491
a 143 243 250
a 143 242 298
a 144 245 364
a 144 244 34
a 144 243 304
a 145 246 393
a 145 245 254
a 145 244 498
a 146 247 153
a 146 246 126
a 146 245 187
a 147 248 189
a 147 247 476
a 147 246 497
a 148 249 437
a 148 248 230
a 148 247 158
a 149 250 422
a 149 249 415
a 149 248 461
a 150 251 29
a 150 250 305
a 150 249 461
a 151 252 249
a 151 251 51
a 151 250 28
a 152 253 295
a 152 252 403
a 152 251 57
a 153 254 44
a 153 253 200
a 153 252 198
a 154 255 429
a 154 254 3
a 154 253 40
a 155 256 182
a 155 255 1
a 155 254 404
a 156 257 160
a 156 256 39
a 156 255 148
a 157 258 135
a 157 257 36
a 157 256 152
a 158 259 216
a 158 258 193
a 158 257 340
a 159 260 130
a 159 259 5
a 159 258 128
a 160 261 286
a 160 260 465
a 160 259 50
a 161 262 336
a 161 261 344
a 161 260 430
a 162 263 239
a 162 262 401
a 162 261 178
a 163 264 290
a 163 263 450
a 163 262 472
a 164 265 293
a 164 264 489
a 164 263 368
a 165 266 145
a 165 265 244
a 165 264 296
a 166 267 183
a 166 266 391
a 166 265 330
a 167 268 70
a 167 267 42
a 167 266 341
a 168 269 262
a 168 268 233
a 168 267 327
a 169 270 118
a 169 269 361
a 169 268 43
a 170 271 82
a 170 270 262
a 170 269 24
a 171 272 426
a 171 271 191
a 171 270 310
a 172 273 178
a 172 272 368
a 172 271 497
a 173 274 127
a 173 273 191
a 173 272 235
a 174 275 115
a 174 274 58
a 174 273 25
a 175 276 359
a 175 275 206
a 175 274 169
a 176 277 101
a 176 276 387
a 176 275 313
a 177 278 495
a 177 277 227
a 177 276 347
a 178 279 79
a 178 278 53
a 178 277 417
a 179 280 291
a 179 279 447
a 179 278 30
a 180 281 52
a 180 280 471
a 180 279 148
a 181 282 94
a 181 281 132
a 181 280 81
a 182 283 313
a 182 282 128
a 182 281 358
a 183 284 356
a 183 283 215
a 183 282 387
a 184 285 413
a 184 284 91
a 184 283 13
a 185 286 470
a 185 285 111
a 185 284 480
a 186 287 356
a 186 286 275
a 186 285 190
a 187 288 434
a 187 287 121
a 187 286 142
a 188 289 339
a 188 288 389
a 188 287 488
a 189 290 285
a 189 289 271
a 189 288 67
a 190 291 107
a 190 290 418
a 190 289 357
a 191 292 238
a 191 291 350
a 191 290 261
a 192 293 218
a 192 292 60
a 192 291 206
a 193 294 284
a 193 293 446
a 193 292 19
a 194 295 374
a 194 294 459
a 194 293 374
a 195 296 484
a 195 295 290
a 195 294 138
a 196 297 258
a 196 296 479
a 196 295 108
a 197 298 230
a 197 297 472
a 197 296 315
a 198 299 119
a 198 298 460
a 198 297 101
a 199 300 389
a 199 299 26
a 199 298 439
a 200 301 158
a 200 300 234
a 200 299 75
a 201 202 359
a 201 301 494
a 201 300 182
a 202 303 418
a 202 302 200
a 202 401 271
a 203 304 364
a 203 303 70
a 203 302 340
a 204 305 174
a 204 304 295
a 204 303 123
a 205 306 463
a 205 305 432
a 205 304 348
a 206 307 293
a 206 306 391
a 206 305 183
a 207 308 116
a 207 307 58
a 207 306 292
a 208 309 75
a 208 308 158
a 208 307 22
a 209 310 452
a 209 309 448
a 209 308 492
a 210 311 38
a 210 310 22
a 210 309 232
a 211 312 31
a 211 311 55
a 211 310 241
a 212 313 82
a 212 312 326
a 212 311 99
a 213 314 3
a 213 313 17
a 213 312 17
a 214 315 297
a 214 314 140
a 214 313 232
a 215 316 81
a 215 315 339
a 215 314 405
a 216 317 471
a 216 316 22
a 216 315 219
a 217 318 380
a 217 317 313
a 217 316 363
a 218 319 37
a 218 318 186
a 218 317 478
a 219 320 484
a 219 319 177
a 219 318 405
a 220 321 358
a 220 320 260
a 220 319 208
a 221 322 412
a 221 321 500
a 221 320 245
a 222 323 237
a 222 322 451
a 222 321 128
a 223 324 106
a 223 323 319
a 223 322 61
a 224 325 245
a 224 324 50
a 224 323 64
a 225 326 435
a 225 325 306
a 225 324 212
a 226 327 456
a 226 326 376
a 226 325 292
a 227 328 269
a 227 327 90
a 227 326 115
a 228 329 306
a 228 328 419
a 228 327 494
a 229 330 483
a 229 329 323
a 229 328 383
a 230 331 94
a 230 330 31
a 230 329 218
a 231 332 94
a 231 331 127
a 231 330 75
a 232 333 44
a 232 332 254
a 232 331 487
a 233 334 214
a 233 333 315
a 233 332 75
a 234 335 263
a 234 334 378
a 234 333 180
a 235 336 420
a 235 335 89
a 235 334 276
a 236 337 295
a 236 336 233
a 236 335 211
a 237 338 236
a 237 337 347
a 237 336 18
a 238 339 154
a 238 338 192
a 238 337 138
a 239 340 329
a 239 339 74
a 239 338 444
a 240 341 211
a 240 340 292
a 240 339 426
a 241 342 337
a 241 341 218
a 241 340 19
a 242 343 91
a 242 342 56
a 242 341 464
a 243 344 405
a 243 343 131
a 243 342 359
a 244 345 134
a 244 344 162
a 244 343 72
a 245 346 74
a 245 345 290
a 245 344 186
a 246 347 306
a 246 346 352
a 246 345 105
a 247 348 4
a 247 347 369
a 247 346 251
a 248 349 196
a 248 348 7
a 248 347 486
a 249 350 121
a 249 349 450
a 249 348 140
a 250 351 264
a 250 350 227
a 250 349 468
a 251 352 482
a 251 351 97
a 251 350 178
a 252 353 37
a 252 352 61
a 252 351 366
a 253 354 19
a 253 353 271
a 253 352 456
a 254 355 33
a 254 354 343
a 254 353 212
a 255 356 322
a 255 355 380
a 255 354 197
a 256 357 173
a 256 356 485
a 256 355 271
a 257 358 41
a 257 357 235
a 257 356 428
a 258 359 399
a 258 358 73
a 258 357 284
a 259 360 348
a 259 359 64
a 259 358 331
a 260 361 74
a 260 360 31
a 260 359 451
a 261 362 23
a 261 361 60
a 261 360 215
a 262 363 83
a 262 362 425
a 262 361 48
a 263 364 205
a 263 363 233
a 263 362 436
a 264 365 399
a 264 364 444
a 264 363 455
a 265 366 279
a 265 365 141
a 265 364 487
a 266 367 263
a 266 366 263
a 266 365 160
a 267 368 349
a 267 367 42
a 267 366 184
a 268 369 273
a 268 368 325
a 268 367 224
a 269 370 336
a 269 369 155
a 269 368 123
a 270 371 366
a 270 370 458
a 270 369 322
a 271 372 277
a 271 371 172
a 271 370 248
a 272 373 202
a 272 372 219
a 272 371 270
a 273 374 434
a 273 373 154
a 273 372 204
a 274 375 229
a 274 374 460
a 274 373 408
a 275 376 221
a 275 375 298
a 275 374 307
a 276 377 335
a 276 376 309
a 276 375 85
a 277 378 377
a 277 377 492
a 277 376 199
a 278 379 53
a 278 378 216
a 278 377 399
a 279 380 60
a 279 379 190
a 279 378 172
a 280 381 17
a 280 380 11
a 280 379 7
a 281 382 40
a 281 381 110
a 281 380 225
a 282 383 110
a 282 382 379
a 282 381 1
a 283 384 115
a 283 383 82
a 283 382 54
a 284 385 427
a 284 384 490
a 284 383 339
a 285 386 224
a 285 385 148
a 285 384 68
a 286 387 33
a 286 386 232
a 286 385 288
a 287 388 376
a 287 387 282
a 287 386 123
a 288 389 91
a 288 388 180
a 288 387 351
a 289 390 132
a 289 389 351
a 289 388 255
a 290 391 495
a 290 390 358
a 290 389 314
a 291 392 104
a 291 391 82
a 291 390 182
a 292 393 483
a 292 392 434
a 292 391 221
a 293 394 416
a 293 393 488
a 293 392 182
a 294 395 405
a 294 394 326
a 294 393 297
a 295 396 52
a 295 395 393
a 295 394 223
a 296 397 135
a 296 396 33
a 296 395 298
a 297 398 416
a 297 397 7
a 297 396 182
a 298 399 96
a 298 398 209
a 298 397 58
a 299 400 298
a 299 399 463
a 299 398 500
a 300 401 155
a 300 400 277
a 300 399 484
a 301 302 88
a 301 401 310
a 301 400 478
a 302 403 22
a 302 402 383
a 302 501 433
a 303 404 361
a 303 403 64
a 303 402 267
a 304 405 186
a 304 404 212
a 304 403 183
a 305 406 431
a 305 405 286
a 305 404 87
a 306 407 315
a 306 406 84
a 306 405 491
a 307 408 321
a 307 407 117
a 307 406 477
a 308 409 29
a 308 408 26
a 308 407 393
a 309 410 491
a 309 409 26
a 309 408 340
a 310 411 119
a 310 410 361
a 310 409 137
a 311 412 429
a 311 411 338
a 311 410 144
a 312 413 311
a 312 412 122
a 312 411 83
a 313 414 226
a 313 413 389
a 313 412 456
a 314 415 438
a 314 414 71
a 314 413 316
a 315 416 223
a 315 415 9
a 315 414 354
a 316 417 158
a 316 416 351
a 316 415 284
a 317 418 127
a 317 417 328
a 317 416 98
a 318 419 152
a 318 418 72
a 318 417 270
a 319 420 29
a 319 419 411
a 319 418 150
a 320 421 389
a 320 420 399
a 320 419 140
a 321 422 78
a 321 421 394
a 321 420 111
a 322 423 200
a 322 422 477
a 322 421 391
a 323 424 88
a 323 423 432
a 323 422 53
a 324 425 158
a 324 424 100
a 324 423 278
a 325 426 18
a 325 425 453
a 325 424 67
a 326 427 369
a 326 426 236
a 326 425 142
a 327 428 196
a 327 427 185
a 327 426 299
a 328 429 267
a 328 428 306
a 328 427 277
a 329 430 29
a 329 429 455
a 329 428 429
a 330 431 279
a 330 430 94
a 330 429 309
a 331 432 173
a 331 431 56
a 331 430 198
a 332 433 1
a 332 432 446
a 332 431 275
a 333 434 284
a 333 433 498
a 333 432 326
a 334 435 383
a 334 434 128
a 334 433 413
a 335 436 335
a 335 435 194
a 335 434 422
a 336 437 422
a 336 436 335
a 336 435 440
a 337 438 458
a 337 437 486
a 337 436 160
a 338 439 263
a 338 438 262
a 338 437 355
a 339 440 217
a 339 439 42
a 339 438 473
a 340 441 163
a 340 440 351
a 340 439 353
a 341 442 218
a 341 441 400
a 341 440 483
a 342 443 16
a 342 442 174
a 342 441 155
a 343 444 365
a 343 443 352
a 343 442 7
a 344 445 492
a 344 444 264
a 344 443 291
a 345 446 38
a 345 445 38
a 345 444 173
a 346 447 372
a 346 446 329
a 346 445 360
a 347 448 357
a 347 447 488
a 347 446 281
a 348 449 471
a 348 448 342
a 348 447 91
a 349 450 12
a 349 449 166
a 349 448 353
a 350 451 362
a 350 450 18
a 350 449 70
a 351 452 113
a 351 451 352
a 351 450 84
a 352 453 139
a 352 452 7
a 352 451 301
a 353 454 490
a 353 453 365
a 353 452 168
a 354 455 105
a 354 454 155
a 354 453 33
a 355 456 142
a 355 455 180
a 355 454 376
a 356 457 470
a 356 456 39
a 356 455 413
a 357 458 457
a 357 457 171
a 357 456 137
a 358 459 150
a 358 458 261
a 358 457 345
a 359 460 315
a 359 459 466
a 359 458 315
a 360 461 184
a 360 460 387
a 360 459 327
a 361 462 36
a 361 461 470
a 361 460 40
a 362 463 394
a 362 462 122
a 362 461 153
a 363 464 110
a 363 463 290
a 363 462 291
a 364 465 265
a 364 464 174
a 364 463 132
a 365 466 296
a 365 465 49
a 365 464 236
a 366 467 334
a 366 466 314
a 366 465 378
a 367 468 356
a 367 467 450
a 367 466 199
a 368 469 469
a 368 468 294
a 368 467 156
a 369 470 434
a 369 469 461
a 369 468 157
a 370 471 172
a 370 470 287
a 370 469 324
a 371 472 141
a 371 471 178
a 371 470 359
a 372 473 262
a 372 472 182
a 372 471 246
a 373 474 51
a 373 473 324
a 373 472 491
a 374 475 76
a 374 474 455
a 374 473 101
a 375 476 125
a 375 475 43
a 375 474 365
a 376 477 290
a 376 476 420
a 376 475 160
a 377 478 239
a 377 477 470
a 377 476 345
a 378 479 384
a 378 478 477
a 378 477 52
a 379 480 344
a 379 479 134
a 379 478 20
a 380 481 482
a 380 480 457
a 380 479 305
a 381 482 12
a 381 481 167
a 381 480 476
a 382 483 193
a 382 482 413
a 382 481 468
a 383 484 369
a 383 483 403
a 383 482 230
a 384 485 175
a 384 484 3
a 384 483 132
a 385 486 217
a 385 485 219
a 385 484 208
a 386 487 488
a 386 486 378
a 386 485 184
a 387 488 458
a 387 487 74
a 387 486 473
a 388 489 434
a 388 488 126
a 388 487 63
a 389 490 419
a 389 489 497
a 389 488 298
a 390 491 227
a 390 490 154
a 390 489 142
a 391 492 394
a 391 491 481
a 391 490 475
a 392 493 306
a 392 492 449
a 392 491 486
a 393 494 60
a 393 493 30
a 393 492 31
a 394 495 63
a 394 494 161
a 394 493 399
a 395 496 281
a 395 495 220
a 395 494 425
a 396 497 11
a 396 496 403
a 396 495 142
a 397 498 84
a 397 497 227
a 397 496 481
a 398 499 209
a 398 498 141
a 398 497 290
a 399 500 58
a 399 499 439
a 399 498 224
a 400 501 211
a 400 500 432
a 400 499 494
a 401 402 191
a 401 501 406
a 401 500 221
a 402 503 139
a 402 502 392
a 402 601 114
a 403 504 168
a 403 503 422
a 403 502 271
a 404 505 181
a 404 504 172
a 404 503 330
a 405 506 400
a 405 505 96
a 405 504 244
a 406 507 155
a 406 506 89
a 406 505 25
a 407 508 233
a 407 507 70
a 407 506 387
a 408 509 374
a 408 508 211
a 408 507 470
a 409 510 164
a 409 509 434
a 409 508 31
a 410 511 95
a 410 510 280
a 410 509 88
a 411 512 352
a 411 511 500
a 411 510 150
a 412 513 243
a 412 512 465
a 412 511 340
a 413 514 16
a 413 513 87
a 413 512 331
a 414 515 187
a 414 514 416
a 414 513 350
a 415 516 135
a 415 515 12
a 415 514 382
a 416 517 223
a 416 516 388
a 416 515 134
a 417 518 144
a 417 517 274
a 417 516 288
a 418 519 355
a 418 518 243
a 418 517 20
a 419 520 140
a 419 519 125
a 419 518 245
a 420 521 419
a 420 520 64
a 420 519 260
a 421 522 270
a 421 521 213
a 421 520 354
a 422 523 234
a 422 522 405
a 422 521 206
a 423 524 320
a 423 523 235
a 423 522 300
a 424 525 88
a 424 524 436
a 424 523 316
a 425 526 451
a 425 525 170
a 425 524 354
a 426 527 338
a 426 526 303
a 426 525 488
a 427 528 111
a 427 527 90
a 427 526 63
a 428 529 205
a 428 528 461
a 428 527 206
a 429 530 330
a 429 529 58
a 429 528 412
a 430 531 393
a 430 530 317
a 430 529 404
a 431 532 106
a 431 531 23
a 431 530 322
a 432 533 362
a 432 532 80
a 432 531 444
a 433 534 448
a 433 533 379
a 433 532 29
a 434 535 383
a 434 534 46
a 434 533 201
a 435 536 52
a 435 535 400
a 435 534 288
a 436 537 354
a 436 536 387
a 436 535 90
a 437 538 295
a 437 537 449
a 437 536 427
a 438 539 108
a 438 538 7
a 438 537 37
a 439 540 165
a 439 539 418
a 439 538 93
a 440 541 481
a 440 540 321
a 440 539 422
a 441 542 355
a 441 541 495
a 441 540 167
a 442 543 434
a 442 542 438
a 442 541 124
a 443 544 313
a 443 543 318
a 443 542 485
a 444 545 210
a 444 544 18
a 444 543 432
a 445 546 109
a 445 545 157
a 445 544 166
a 446 547 496
a 446 546 246
a 446 545 70
a 447 548 296
a 447 547 172
a 447 546 423
a 448 549 302
a 448 548 60
a 448 547 70
a 449 550 72
a 449 549 153
a 449 548 177
a 450 551 244
a 450 550 426
a 450 549 341
a 451 552 90
a 451 551 92
a 451 550 173
a 452 553 379
a 452 552 67
a 452 551 28
a 453 554 197
a 453 553 51
a 453 552 313
a 454 555 214
a 454 554 334
a 454 553 125
a 455 556 371
a 455 555 500
a 455 554 187
a 456 557 116
a 456 556 69
a 456 555 295
a 457 558 140
a 457 557 343
a 457 556 142
a 458 559 199
a 458 558 264
a 458 557 438
a 459 560 203
a 459 559 440
a 459 558 91
a 460 561 129
a 460 560 132
a 460 559 14
a 461 562 72
a 461 561 305
a 461 560 258
a 462 563 139
a 462 562 184
a 462 561 347
a 463 564 41
a 463 563 496
a 463 562 226
a 464 565 227
a 464 564 473
a 464 563 422
a 465 566 226
a 465 565 159
a 465 564 135
a 466 567 146
a 466 566 453
a 466 565 357
a 467 568 340
a 467 567 447
a 467 566 473
a 468 569 104
a 468 568 384
a 468 567 112
a 469 570 43
a 469 569 326
a 469 568 162
a 470 571 175
a 470 570 340
a 470 569 217
a 471 572 331
a 471 571 97
a 471 570 345
a 472 573 14
a 472 572 295
a 472 571 268
a 473 574 361
a 473 573 20
a 473 572 258
a 474 575 333
a 474 574 293
a 474 573 151
a 475 576 491
a 475 575 280
a 475 574 377
a 476 577 296
a 476 576 136
a 476 575 454
a 477 578 242
a 477 577 108
a 477 576 99
a 478 579 477
a 478 578 71
a 478 577 438
a 479 580 302
a 479 579 85
a 479 578 41
a 480 581 493
a 480 580 301
a 480 579 84
a 481 582 441
a 481 581 497
a 481 580 110
a 482 583 236
a 482 582 264
a 482 581 440
a 483 584 107
a 483 583 374
a 483 582 305
a 484 585 252
a 484 584 24
a 484 583 165
a 485 586 31
a 485 585 252
a 485 584 350
a 486 587 166
a 486 586 205
a 486 585 340
a 487 588 126
a 487 587 303
a 487 586 487
a 488 589 48
a 488 588 92
a 488 587 80
a 489 590 132
a 489 589 485
a 489 588 408
a 490 591 432
a 490 590 420
a 490 589 62
a 491 592 428
a 491 591 29
a 491 590 54
a 492 593 44
a 492 592 320
a 492 591 495
a 493 594 269
a 493 593 124
a 493 592 82
a 494 595 144
a 494 594 140
a 494 593 188
a 495 596 395
a 495 595 489
a 495 594 439
a 496 597 99
a 496 596 181
a 496 595 321
a 497 598 253
a 497 597 19
a 497 596 487
a 498 599 196
a 498 598 99
a 498 597 464
a 499 600 180
a 499 599 6
a 499 598 11
a 500 601 99
a 500 600 67
a 500 599 143
a 501 502 479
a 501 601 473
a 501 600 426
a 502 603 298
a 502 602 467
a 502 701 354
a 503 604 273
a 503 603 48
a 503 602 249
a 504 605 413
a 504 604 87
a 504 603 17
a 505 606 401
a 505 605 378
a 505 604 160
a 506 607 433
a 506 606 198
a 506 605 54
a 507 608 452
a 507 607 36
a 507 606 4
a 508 609 50
a 508 608 499
a 508 607 108
a 509 610 407
a 509 609 362
a 509 608 155
a 510 611 326
a 510 610 4
a 510 609 335
a 511 612 298
a 511 611 429
a 511 610 285
a 512 613 116
a 512 612 134
a 512 611 264
a 513 614 15
a 513 613 382
a 513 612 61
a 514 615 101
a 514 614 398
a 514 613 186
a 515 616 330
a 515 615 409
a 515 614 98
a 516 617 380
a 516 616 314
a 516 615 350
a 517 618 415
a 517 617 317
a 517 616 135
a 518 619 266
a 518 618 276
a 518 617 86
a 519 620 127
a 519 619 431
a 519 618 487
a 520 621 130
a 520 620 117
a 520 619 393
a 521 622 410
a 521 621 253
a 521 620 70
a 522 623 396
a 522 622 16
a 522 621 367
a 523 624 277
a 523 623 429
a 523 622 334
a 524 625 27
a 524 624 114
a 524 623 348
a 525 626 287
a 525 625 63
a 525 624 301
a 526 627 101
a 526 626 264
a 526 625 130
a 527 628 417
a 527 627 398
a 527 626 9
a 528 629 45
a 528 628 483
a 528 627 276
a 529 630 327
a 529 629 321
a 529 628 41
a 530 631 295
a 530 630 66
a 530 629 19
a 531 632 47
a 531 631 135
a 531 630 500
a 532 633 63
a 532 632 354
a 532 631 409
a 533 634 343
a 533 633 187
a 533 632 304
a 534 635 308
a 534 634 35
a 534 633 433
a 535 636 370
a 535 635 335
a 535 634 311
a 536 637 485
a 536 636 316
a 536 635 97
a 537 638 383
a 537 637 325
a 537 636 197
a 538 639 217
a 538 638 452
a 538 637 466
a 539 640 38
a 539 639 344
a 539 638 362
a 540 641 103
a 540 640 362
a 540 639 188
a 541 642 89
a 541 641 361
a 541 640 482
a 542 643 442
a 542 642 121
a 542 641 380
a 543 644 129
a 543 643 425
a 543 642 294
a 544 645 163
a 544 644 209
a 544 643 136
a 545 646 497
a 545 645 371
a 545 644 443
a 546 647 312
a 546 646 467
a 546 645 164
a 547 648 488
a 547 647 16
a 547 646 1
a 548 649 291
a 548 648 333
a 548 647 235
a 549 650 134
a 549 649 194
a 549 648 451
a 550 651 495
a 550 650 381
a 550 649 340
a 551 652 355
a 551 651 214
a 551 650 294
a 552 653 476
a 552 652 445
a 552 651 383
a 553 654 252
a 553 653 239
a 553 652 324
a 554 655 312
a 554 654 374
a 554 653 452
a 555 656 182
a 555 655 169
a 555 654 466
a 556 657 500
a 556 656 184
a 556 655 314
a 557 658 15
a 557 657 36
a 557 656 478
a 558 659 347
a 558 658 270
a 558 657 465
a 559 660 392
a 559 659 73
a 559 658 108
a 560 661 124
a 560 660 412
a 560 659 241
a 561 662 337
a 561 661 58
a 561 660 88
a 562 663 282
a 562 662 440
a 562 661 294
a 563 664 372
a 563 663 115
a 563 662 121
a 564 665 97
a 564 664 419
a 564 663 372
a 565 666 265
a 565 665 384
a 565 664 35
a 566 667 301
a 566 666 198
a 566 665 68
a 567 668 336
a 567 667 175
a 567 666 68
a 568 669 458
a 568 668 491
a 568 667 434
a 569 670 30
a 569 669 450
a 569 668 133
a 570 671 293
a 570 670 191
a 570 669 24
a 571 672 350
a 571 671 130
a 571 670 148
a 572 673 141
a 572 672 423
a 572 671 336
a 573 674 256
a 573 673 44
a 573 672 469
a 574 675 26
a 574 674 267
a 574 673 340
a 575 676 261
a 575 675 154
a 575 674 437
a 576 677 458
a 576 676 221
a 576 675 53
a 577 678 484
a 577 677 288
a 577 676 205
a 578 679 327
a 578 678 222
a 578 677 41
a 579 680 128
a 579 679 206
a 579 678 498
a 580 681 170
a 580 680 229
a 580 679 379
a 581 682 299
a 581 681 228
a 581 680 171
a 582 683 222
a 582 682 64
a 582 681 21
a 583 684 117
a 583 683 384
a 583 682 161
a 584 685 383
a 584 684 224
a 584 683 268
a 585 686 36
a 585 685 12
a 585 684 293
a 586 687 109
a 586 686 64
a 586 685 54
a 587 688 396
a 587 687 269
a 587 686 363
a 588 689 469
a 588 688 161
a 588 687 199
a 589 690 174
a 589 689 10
a 589 688 377
a 590 691 255
a 590 690 388
a 590 689 4
a 591 692 482
a 591 691 58
a 591 690 174
a 592 693 397
a 592 692 430
a 592 691 324
a 593 694 281
a 593 693 443
a 593 692 45
a 594 695 356
a 594 694 210
a 594 693 13
a 595 696 367
a 595 695 355
a 595 694 248
a 596 697 282
a 596 696 260
a 596 695 135
a 597 698 402
a 597 697 474
a 597 696 243
a 598 699 414
a 598 698 172
a 598 697 139
a 599 700 423
a 599 699 400
a 599 698 459
a 600 701 162
a 600 700 256
a 600 699 485
a 601 602 72
a 601 701 281
a 601 700 91
a 602 703 1
a 602 702 104
a 602 801 424
a 603 704 443
a 603 703 1
a 603 702 321
a 604 705 5
a 604 704 13
a 604 703 453
a 605 706 359
a 605 705 260
a 605 704 308
a 606 707 118
a 606 706 395
a 606 705 26
a 607 708 91
a 607 707 137
a 607 706 159
a 608 709 115
a 608 708 127
a 608 707 61
a 609 710 366
a 609 709 438
a 609 708 474
a 610 711 121
a 610 710 422
a 610 709 249
a 611 712 401
a 611 711 364
a 611 710 410
a 612 713 5
a 612 712 287
a 612 711 333
a 613 714 357
a 613 713 459
a 613 712 334
a 614 715 369
a 614 714 411
a 614 713 128
a 615 716 129
a 615 715 70
a 615 714 132
a 616 717 375
a 616 716 447
a 616 715 342
a 617 718 11
a 617 717 106
a 617 716 459
a 618 719 490
a 618 718 166
a 618 717 402
a 619 720 427
a 619 719 491
a 619 718 368
a 620 721 200
a 620 720 239
a 620 719 233
a 621 722 63
a 621 721 1
a 621 720 206
a 622 723 349
a 622 722 333
a 622 721 458
a 623 724 308
a 623 723 18
a 623 722 462
a 624 725 70
a 624 724 498
a 624 723 170
a 625 726 140
a 625 725 129
a 625 724 39
a 626 727 86
a 626 726 471
a 626 725 19
a 627 728 43
a 627 727 281
a 627 726 393
a 628 729 208
a 628 728 34
a 628 727 255
a 629 730 51
a 629 729 401
a 629 728 244
a 630 731 289
a 630 730 486
a 630 729 22
a 631 732 141
a 631 731 191
a 631 730 221
a 632 733 326
a 632 732 148
a 632 731 135
a 633 734 195
a 633 733 462
a 633 732 484
a 634 735 192
a 634 734 131
a 634 733 143
a 635 736 321
a 635 735 21
a 635 734 64
a 636 737 143
a 636 736 39
a 636 735 55
a 637 738 423
a 637 737 431
a 637 736 493
a 638 739 309
a 638 738 186
a 638 737 35
a 639 740 209
a 639 739 281
a 639 738 95
a 640 741 46
a 640 740 303
a 640 739 145
a 641 742 88
a 641 741 23
a 641 740 285
a 642 743 236
a 642 742 158
a 642 741 426
a 643 744 49
a 643 743 493
a 643 742 103
a 644 745 31
a 644 744 487
a 644 743 297
a 645 746 52
a 645 745 50
a 645 744 341
a 646 747 90
a 646 746 457
a 646 745 13
a 647 748 373
a 647 747 449
a 647 746 155
a 648 749 58
a 648 748 483
a 648 747 429
a 649 750 338
a 649 749 77
a 649 748 89
a 650 751 140
a 650 750 221
a 650 749 298
a 651 752 15
a 651 751 6
a 651 750 195
a 652 753 24
a 652 752 283
a 652 751 283
a 653 754 16
a 653 753 237
a 653 752 370
a 654 755 354
a 654 754 385
a 654 753 418
a 655 756 255
a 655 755 225
a 655 754 300
a 656 757 211
a 656 756 237
a 656 755 351
a 657 758 159
a 657 757 243
a 657 756 293
a 658 759 142
a 658 758 24
a 658 757 165
a 659 760 70
a 659 759 112
a 659 758 222
a 660 761 291
a 660 760 261
a 660 759 411
a 661 762 148
a 661 761 456
a 661 760 403
a 662 763 282
a 662 762 90
a 662 761 417
a 663 764 18
a 663 763 459
a 663 762 440
a 664 765 402
a 664 764 376
a 664 763 307
a 665 766 479
a 665 765 175
a 665 764 12
a 666 767 67
a 666 766 378
a 666 765 266
a 667 768 162
a 667 767 170
a 667 766 477
a 668 769 37
a 668 768 334
a 668 767 135
a 669 770 500
a 669 769 407
a 669 768 128
a 670 771 261
a 670 770 317
a 670 769 198
a 671 772 68
a 671 771 71
a 671 770 340
a 672 773 9
a 672 772 487
a 672 771 487
a 673 774 467
a 673 773 278
a 673 772 268
a 674 775 194
a 674 774 436
a 674 773 137
a 675 776 220
a 675 775 447
a 675 774 38
a 676 777 97
a 676 776 213
a 676 775 368
a 677 778 118
a 677 777 41
a 677 776 435
a 678 779 451
a 678 778 175
a 678 777 96
a 679 780 209
a 679 779 303
a 679 778 132
a 680 781 26
a 680 780 352
a 680 779 131
a 681 782 448
a 681 781 191
a 681 780 243
a 682 783 435
a 682 782 177
a 682 781 162
a 683 784 64
a 683 783 296
a 683 782 170
a 684 785 352
a 684 784 432
a 684 783 136
a 685 786 298
a 685 785 321
a 685 784 181
a 686 787 362
a 686 786 189
a 686 785 401
a 687 788 402
a 687 787 475
a 687 786 497
a 688 789 429
a 688 788 70
a 688 787 115
a 689 790 83
a 689 789 53
a 689 788 417
a 690 791 434
a 690 790 183
a 690 789 126
a 691 792 124
a 691 791 278
a 691 790 3
a 692 793 152
a 692 792 291
a 692 791 450
a 693 794 447
a 693 793 461
a 693 792 236
a 694 795 230
a 694 794 448
a 694 793 300
a 695 796 50
a 695 795 129
a 695 794 3
a 696 797 90
a 696 796 29
a 696 795 300
a 697 798 64
a 697 797 377
a 697 796 14
a 698 799 485
a 698 798 491
a 698 797 267
a 699 800 37
a 699 799 260
a 699 798 195
a 700 801 72
a 700 800 385
a 700 799 277
a 701 702 201
a 701 801 239
a 701 800 210
a 702 803 491
a 702 802 40
a 702 901 185
a 703 804 451
a 703 803 276
a 703 802 336
a 704 805 251
a 704 804 427
a 704 803 282
a 705 806 379
a 705 805 429
a 705 804 363
a 706 807 259
a 706 806 80
a 706 805 265
a 707 808 135
a 707 807 445
a 707 806 354
a 708 809 478
a 708 808 212
a 708 807 270
a 709 810 237
a 709 809 258
a 709 808 106
a 710 811 473
a 710 810 35
a 710 809 143
a 711 812 211
a 711 811 96
a 711 810 66
a 712 813 250
a 712 812 133
a 712 811 266
a 713 814 377
a 713 813 468
a 713 812 108
a 714 815 303
a 714 814 102
a 714 813 59
a 715 816 83
a 715 815 464
a 715 814 161
a 716 817 15
a 716 816 228
a 716 815 39
a 717 818 459
a 717 817 434
a 717 816 297
a 718 819 170
a 718 818 55
a 718 817 431
a 719 820 428
a 719 819 160
a 719 818 408
a 720 821 314
a 720 820 302
a 720 819 496
a 721 822 261
a 721 821 219
a 721 820 468
a 722 823 393
a 722 822 336
a 722 821 30
a 723 824 213
a 723 823 444
a 723 822 132
a 724 825 314
a 724 824 354
a 724 823 8
a 725 826 129
a 725 825 14
a 725 824 163
a 726 827 357
a 726 826 52
a 726 825 97
a 727 828 142
a 727 827 200
a 727 826 111
a 728 829 196
a 728 828 482
a 728 827 70
a 729 830 355
a 729 829 390
a 729 828 91
a 730 831 9
a 730 830 237
a 730 829 370
a 731 832 227
a 731 831 205
a 731 830 183
a 732 833 415
a 732 832 234
a 732 831 296
a 733 834 358
a 733 833 365
a 733 832 188
a 734 835 211
a 734 834 225
a 734 833 252
a 735 836 224
a 735 835 239
a 735 834 65
a 736 837 127
a 736 836 335
a 736 835 194
a 737 838 326
a 737 837 446
a 737 836 402
a 738 839 307
a 738 838 367
a 738 837 395
a 739 840 48
a 739 839 457
a 739 838 90
a 740 841 285
a 740 840 327
a 740 839 296
a 741 842 341
a 741 841 361
a 741 840 304
a 742 843 74
a 742 842 156
a 742 841 383
a 743 844 291
a 743 843 196
a 743 842 149
a 744 845 367
a 744 844 447
a 744 843 6
a 745 846 105
a 745 845 364
a 745 844 68
a 746 847 291
a 746 846 409
a 746 845 291
a 747 848 236
a 747 847 162
a 747 846 269
a 748 849 102
a 748 848 56
a 748 847 94
a 749 850 411
a 749 849 145
a 749 848 252
a 750 851 89
a 750 850 292
a 750 849 152
a 751 852 449
a 751 851 448
a 751 850 436
a 752 853 457
a 752 852 182
a 752 851 276
a 753 854 152
a 753 853 330
a 753 852 201
a 754 855 450
a 754 854 335
a 754 853 343
a 755 856 165
a 755 855 402
a 755 854 61
a 756 857 73
a 756 856 44
a 756 855 165
a 757 858 234
a 757 857 312
a 757 856 456
a 758 859 141
a 758 858 257
a 758 857 43
a 759 860 137
a 759 859 360
a 759 858 497
a 760 861 429
a 760 860 11
a 760 859 259
a 761 862 376
a 761 861 298
a 761 860 347
a 762 863 57
a 762 862 425
a 762 861 295
a 763 864 386
a 763 863 126
a 763 862 251
a 764 865 72
a 764 864 320
a 764 863 254
a 765 866 325
a 765 865 381
a 765 864 56
a 766 867 368
a 766 866 397
a 766 865 220
a 767 868 31
a 767 867 204
a 767 866 145
a 768 869 287
a 768 868 247
a 768 867 230
a 769 870 146
a 769 869 95
a 769 868 371
a 770 871 9
a 770 870 353
a 770 869 359
a 771 872 306
a 771 871 199
a 771 870 287
a 772 873 231
a 772 872 345
a 772 871 14
a 773 874 208
a 773 873 448
a 773 872 422
a 774 875 379
a 774 874 201
a 774 873 159
a 775 876 259
a 775 875 108
a 775 874 230
a 776 877 8
a 776 876 180
a 776 875 54
a 777 878 211
a 777 877 176
a 777 876 273
a 778 879 309
a 778 878 405
a 778 877 303
a 779 880 403
a 779 879 127
a 779 878 441
a 780 881 107
a 780 880 486
a 780 879 87
a 781 882 305
a 781 881 124
a 781 880 447
a 782 883 2
a 782 882 138
a 782 881 252
a 783 884 449
a 783 883 411
a 783 882 334
a 784 885 1
a 784 884 70
a 784 883 393
a 785 886 109
a 785 885 151
a 785 884 272
a 786 887 288
a 786 886 57
a 786 885 382
a 787 888 463
a 787 887 329
a 787 886 389
a 788 889 219
a 788 888 484
a 788 887 452
a 789 890 346
a 789 889 424
a 789 888 260
a 790 891 183
a 790 890 362
a 790 889 15
a 791 892 158
a 791 891 308
a 791 890 473
a 792 893 295
a 792 892 412
a 792 891 130
a 793 894 58
a 793 893 245
a 793 892 131
a 794 895 127
a 794 894 138
a 794 893 79
a 795 896 129
a 795 895 261
a 795 894 79
a 796 897 185
a 796 896 142
a 796 895 187
a 797 898 366
a 797 897 383
a 797 896 326
a 798 899 349
a 798 898 334
a 798 897 140
a 799 900 124
a 799 899 445
a 799 898 359
a 800 901 486
a 800 900 311
a 800 899 56
a 801 802 145
a 801 901 284
a 801 900 90
a 802 903 56
a 802 902 413
a 802 1001 247
a 803 904 301
a 803 903 43
a 803 902 394
a 804 905 290
a 804 904 121
a 804 903 451
a 805 906 50
a 805 905 51
a 805 904 429
a 806 907 43
a 806 906 238
a 806 905 57
a 807 908 425
a 807 907 415
a 807 906 242
a 808 909 110
a 808 908 55
a 808 907 459
a 809 910 55
a 809 909 265
a 809 908 159
a 810 911 217
a 810 910 320
a 810 909 282
a 811 912 500
a 811 911 261
a 811 910 119
a 812 913 264
a 812 912 7
a 812 911 264
a 813 914 306
a 813 913 400
a 813 912 319
a 814 915 278
a 814 914 202
a 814 913 471
a 815 916 329
a 815 915 130
a 815 914 112
a 816 917 418
a 816 916 187
a 816 915 13
a 817 918 184
a 817 917 280
a 817 916 56
a 818 919 238
a 818 918 90
a 818 917 480
a 819 920 354
a 819 919 248
a 819 918 90
a 820 921 25
a 820 920 381
a 820 919 496
a 821 922 285
a 821 921 500
a 821 920 212
a 822 923 144
a 822 922 115
a 822 921 212
a 823 924 43
a 823 923 285
a 823 922 327
a 824 925 97
a 824 924 108
a 824 923 133
a 825 926 226
a 825 925 219
a 825 924 262
a 826 927 264
a 826 926 232
a 826 925 442
a 827 928 395
a 827 927 287
a 827 926 211
a 828 929 336
a 828 928 118
a 828 927 395
a 829 930 83
a 829 929 59
a 829 928 484
a 830 931 316
a 830 930 54
a 830 929 338
a 831 932 315
a 831 931 118
a 831 930 214
a 832 933 281
a 832 932 181
a 832 931 499
a 833 934 65
a 833 933 7
a 833 932 142
a 834 935 24
a 834 934 139
a 834 933 36
a 835 936 243
a 835 935 253
a 835 934 132
a 836 937 326
a 836 936 46
a 836 935 210
a 837 938 464
a 837 937 257
a 837 936 325
a 838 939 81
a 838 938 3
a 838 937 72
a 839 940 492
a 839 939 486
a 839 938 407
a 840 941 45
a 840 940 175
a 840 939 490
a 841 942 162
a 841 941 389
a 841 940 157
a 842 943 342
a 842 942 239
a 842 941 471
a 843 944 349
a 843 943 380
a 843 942 103
a 844 945 339
a 844 944 267
a 844 943 19
a 845 946 443
a 845 945 251
a 845 944 43
a 846 947 489
a 846 946 460
a 846 945 285
a 847 948 97
a 847 947 136
a 847 946 462
a 848 949 99
a 848 948 207
a 848 947 425
a 849 950 436
a 849 949 114
a 849 948 357
a 850 951 463
a 850 950 455
a 850 949 348
a 851 952 203
a 851 951 111
a 851 950 245
a 852 953 441
a 852 952 433
a 852 951 258
a 853 954 172
a 853 953 387
a 853 952 452
a 854 955 290
a 854 954 405
a 854 953 300
a 855 956 40
a 855 955 447
a 855 954 490
a 856 957 351
a 856 956 83
a 856 955 285
a 857 958 487
a 857 957 44
a 857 956 273
a 858 959 193
a 858 958 320
a 858 957 369
a 859 960 158
a 859 959 177
a 859 958 319
a 860 961 464
a 860 960 376
a 860 959 254
a 861 962 426
a 861 961 120
a 861 960 216
a 862 963 210
a 862 962 378
a 862 961 270
a 863 964 96
a 863 963 181
a 863 962 210
a 864 965 1
a 864 964 332
a 864 963 233
a 865 966 447
a 865 965 321
a 865 964 23
a 866 967 30
a 866 966 457
a 866 965 414
a 867 968 425
a 867 967 229
a 867 966 265
a 868 969 245
a 868 968 449
a 868 967 251
a 869 970 273
a 869 969 119
a 869 968 295
a 870 971 148
a 870 970 373
a 870 969 305
a 871 972 120
a 871 971 440
a 871 970 268
a 872 973 349
a 872 972 210
a 872 971 194
a 873 974 29
a 873 973 271
a 873 972 255
a 874 975 360
a 874 974 356
a 874 973 351
a 875 976 32
a 875 975 230
a 875 974 351
a 876 977 489
a 876 976 143
a 876 975 149
a 877 978 69
a 877 977 407
a 877 976 178
a 878 979 370
a 878 978 9
a 878 977 455
a 879 980 488
a 879 979 304
a 879 978 199
a 880 981 212
a 880 980 108
a 880 979 471
a 881 982 4
a 881 981 227
a 881 980 470
a 882 983 65
a 882 982 272
a 882 981 441
a 883 984 187
a 883 983 27
a 883 982 289
a 884 985 42
a 884 984 377
a 884 983 317
a 885 986 123
a 885 985 79
a 885 984 28
a 886 987 266
a 886 986 227
a 886 985 60
a 887 988 24
a 887 987 405
a 887 986 400
a 888 989 33
a 888 988 359
a 888 987 468
a 889 990 188
a 889 989 409
a 889 988 189
a 890 991 295
a 890 990 231
a 890 989 177
a 891 992 373
a 891 991 52
a 891 990 240
a 892 993 145
a 892 992 493
a 892 991 243
a 893 994 23
a 893 993 281
a 893 992 307
a 894 995 399
a 894 994 450
a 894 993 494
a 895 996 477
a 895 995 329
a 895 994 387
a 896 997 203
a 896 996 388
a 896 995 10
a 897 998 459
a 897 997 139
a 897 996 127
a 898 999 169
a 898 998 459
a 898 997 150
a 899 1000 429
a 899 999 147
a 899 998 182
a 900 1001 159
a 900 1000 175
a 900 999 221
a 901 902 63
a 901 1001 415
a 901 1000 15
a 902 1002 1500
a 903 1002 1500
a 904 1002 1500
a 905 1002 1500
a 906 1002 1500
a 907 1002 1500
a 908 1002 1500
a 909 1002 1500
a 910 1002 1500
a 911 1002 1500
a 912 1002 1500
a 913 1002 1500
a 914 1002 1500
a 915 1002 1500
a 916 1002 1500
a 917 1002 1500
a 918 1002 1500
a 919 1002 1500
a 920 1002 1500
a 921 1002 1500
a 922 1002 1500
a 923 1002 1500
a 924 1002 1500
a 925 1002 1500
a 926 1002 1500
a 927 1002 1500
a 928 1002 1500
a 929 1002 1500
a 930 1002 1500
a 931 1002 1500
a 932 1002 1500
a 933 1002 1500
a 934 1002 1500
a 935 1002 1500
a 936 1002 1500
a 937 1002 1500
a 938 1002 1500
a 939 1002 1500
a 940 1002 1500
a 941 1002 1500
a 942 1002 1500
a 943 1002 1500
a 944 1002 1500
a 945 1002 1500
a 946 1002 1500
a 947 1002 1500
a 948 1002 1500
a 949 1002 1500
a 950 1002 1500
a 951 1002 1500
a 952 1002 1500
a 953 1002 1500
a 954 1002 1500
a 955 1002 1500
a 956 1002 1500
a 957 1002 1500
a 958 1002 1500
a 959 1002 1500
a 960 1002 1500
a 961 1002 1500
a 962 1002 1500
a 963 1002 1500
a 964 1002 1500
a 965 1002 1500
a 966 1002 1500
a 967 1002 1500
a 968 1002 1500
a 969 1002 1500
a 970 1002 1500
a 971 1002 1500
a 972 1002 1500
a 973 1002 1500
a 974 1002 1500
a 975 1002 1500
a 976 1002 1500
a 977 1002 1500
a 978 1002 1500
a 979 1002 1500
a 980 1002 1500
a 981 1002 1500
a 982 1002 1500
a 983 1002 1500
a 984 1002 1500
a 985 1002 1500
a 986 1002 1500
a 987 1002 1500
a 988 1002 1500
a 989 1002 1500
a 990 1002 1500
a 991 1002 1500
a 992 1002 1500
a 993 1002 1500
a 994 1002 1500
a 995 1002 1500
a 996 1002 1500
a 997 1002 1500
a 998 1002 1500
a 999 1002 1500
a 1000 1002 1500
a 1001 1002 1500
